WARNING: for repeatability, setting FPU to use double precision
============================[ Problem Statistics ]=============================
|                                                                             |
|  Number of variables:           100                                         |
|  Number of clauses:             449                                         |
|  Parse time:                   0.00 s                                       |
|  Eliminated clauses:           0.00 Mb                                      |
|  Simplification time:          0.00 s                                       |
|                                                                             |
============================[ Search Statistics ]==============================
| Conflicts |          ORIGINAL         |          LEARNT          | Progress |
|           |    Vars  Clauses Literals |    Limit  Clauses Lit/Cl |          |
===============================================================================
|       100 |      99      441     1323 |      161      100      8 |  0.010 % |
|       250 |      99      441     1323 |      177      167      7 |  0.010 % |
|       475 |      99      441     1323 |      195      110      6 |  0.020 % |
===============================================================================
restarts              : 4
conflicts             : 476            (107304 /sec)
decisions             : 590            (0.00 % random) (133003 /sec)
propagations          : 11387          (2566952 /sec)
conflict literals     : 3127           (18.14 % deleted)
Memory used           : 13.00 MB
CPU time              : 0.004436 s

SATISFIABLE
